

******************************************************************************
This program contains Ipopt, a library for large-scale nonlinear optimization.
 Ipopt is released as open source code under the Eclipse Public License (EPL).
         For more information visit https://github.com/coin-or/Ipopt
******************************************************************************

This is Ipopt version 3.14.11, running with linear solver MUMPS 5.5.1.

Number of nonzeros in equality constraint Jacobian...:      120
Number of nonzeros in inequality constraint Jacobian.:        0
Number of nonzeros in Lagrangian Hessian.............:       77

Total number of variables............................:       36
                     variables with only lower bounds:        1
                variables with lower and upper bounds:        0
                     variables with only upper bounds:        0
Total number of equality constraints.................:       20
Total number of inequality constraints...............:        0
        inequality constraints with only lower bounds:        0
   inequality constraints with lower and upper bounds:        0
        inequality constraints with only upper bounds:        0

iter    objective    inf_pr   inf_du lg(mu)  ||d||  lg(rg) alpha_du alpha_pr  ls
   0  3.4114928e+01 3.54e+00 5.35e+00  -1.0 0.00e+00    -  0.00e+00 0.00e+00   0
   1  1.7031406e+00 7.08e-01 4.17e+01  -1.0 2.88e+00    -  1.00e+00 1.00e+00f  1
   2  1.6110390e+00 1.04e+00 5.72e+01  -1.0 9.71e-01    -  1.00e+00 5.00e-01f  2
   3  2.3230574e+00 2.77e-01 4.08e+02  -1.0 3.41e-01   2.0 1.00e+00 1.00e+00h  1
   4  2.3766975e+00 3.96e-02 1.15e+02  -1.0 9.40e-02   2.4 1.00e+00 1.00e+00h  1
   5  2.3947739e+00 4.86e-04 1.44e+01  -1.0 2.03e-02   2.9 1.00e+00 1.00e+00h  1
   6  2.3842984e+00 1.03e-04 7.19e+00  -1.0 2.59e-03   2.4 1.00e+00 1.00e+00h  1
   7  2.3388282e+00 3.28e-03 1.18e+00  -1.0 1.45e-02   1.9 1.00e+00 1.00e+00f  1
   8  2.2458574e+00 1.58e-02 1.54e+00  -1.0 3.22e-02   1.4 1.00e+00 1.00e+00f  1
   9  2.1569534e+00 2.30e-02 2.25e+00  -1.0 5.59e-02   0.9 1.00e+00 1.00e+00h  1
iter    objective    inf_pr   inf_du lg(mu)  ||d||  lg(rg) alpha_du alpha_pr  ls
  10  2.1040937e+00 4.99e-03 4.53e+00  -1.0 2.57e-02   1.4 1.00e+00 1.00e+00h  1
  11  1.9934901e+00 4.35e-02 6.38e-01  -1.0 7.57e-02   0.9 1.00e+00 1.00e+00h  1
  12  1.8558808e+00 1.12e+00 5.93e+01  -1.7 6.94e+00    -  1.00e+00 6.25e-02f  5
  13  1.4775313e+00 1.25e+00 7.58e+01  -1.7 5.86e-01   0.4 1.00e+00 1.00e+00h  1
  14  2.0803552e+00 5.52e-01 1.92e+03  -1.7 4.13e-01   1.7 1.00e+00 1.00e+00h  1
  15  2.1495878e+00 1.51e-01 5.06e+02  -1.7 1.29e-01   2.2 1.00e+00 1.00e+00h  1
  16  2.1615701e+00 4.77e-02 8.13e+01  -1.7 6.74e-02   1.7 1.00e+00 1.00e+00h  1
  17  2.1202925e+00 2.93e-03 2.17e+01  -1.7 1.67e-02   2.1 1.00e+00 1.00e+00h  1
  18  1.9981483e+00 4.10e-02 9.70e+00  -1.7 2.98e-01    -  1.00e+00 1.00e+00f  1
  19  1.9956746e+00 2.01e-04 4.51e-01  -1.7 1.03e-02   1.6 1.00e+00 1.00e+00h  1
iter    objective    inf_pr   inf_du lg(mu)  ||d||  lg(rg) alpha_du alpha_pr  ls
  20  1.9875608e+00 8.68e-03 1.20e+00  -1.7 3.07e-02   1.2 1.00e+00 1.00e+00h  1
  21  1.9417240e+00 7.70e-01 1.02e+02  -1.7 3.16e-01   0.7 1.00e+00 1.00e+00f  1
  22  1.6240677e+00 4.16e-01 9.03e+01  -1.7 5.56e-01   0.2 1.00e+00 1.00e+00h  1
  23  1.6942658e+00 1.21e-01 2.59e+01  -1.7 1.00e-01   0.6 1.00e+00 1.00e+00h  1
  24  1.6142356e+00 4.86e-02 9.61e+00  -1.7 4.03e-01    -  1.00e+00 1.00e+00h  1
  25  1.5565128e+00 4.84e-01 9.51e+00  -1.7 1.37e+00    -  1.00e+00 1.00e+00h  1
  26  1.5273218e+00 2.33e-01 1.85e+01  -1.7 3.72e+00    -  1.00e+00 1.00e+00h  1
  27  1.5257870e+00 3.79e-01 1.31e+01  -1.7 2.96e+01    -  1.00e+00 1.25e-01h  4
  28  1.5248730e+00 3.70e-01 1.11e+01  -1.7 2.64e+01    -  1.00e+00 1.25e-01h  4
  29  1.5235295e+00 3.54e-01 7.12e+00  -1.7 2.54e+01    -  1.00e+00 2.50e-01h  3
iter    objective    inf_pr   inf_du lg(mu)  ||d||  lg(rg) alpha_du alpha_pr  ls
  30  1.5210791e+00 3.73e-01 5.00e+01  -1.7 2.62e+01    -  1.00e+00 1.00e+00H  1
  31  1.5187289e+00 2.14e-01 1.24e+01  -1.7 1.25e+02    -  1.00e+00 2.50e-01h  3
  32  1.5174248e+00 1.05e+00 4.05e+01  -1.7 1.15e+02    -  1.00e+00 1.00e+00h  1
  33  1.5181837e+00 3.66e-04 8.69e-03  -1.7 1.09e-03   0.2 1.00e+00 1.00e+00h  1
  34  1.5177898e+00 2.47e-01 5.90e-01  -3.8 9.88e+01    -  1.00e+00 1.00e+00h  1
  35  1.5175856e+00 3.17e-01 2.14e+00  -3.8 2.48e+02    -  1.00e+00 1.00e+00h  1
  36  1.5174893e+00 3.00e-01 5.27e+00  -3.8 5.21e+02    -  1.00e+00 1.00e+00h  1
  37  1.5174361e+00 3.34e-01 3.68e+01  -3.8 1.06e+03    -  1.00e+00 1.00e+00h  1
  38  1.5174150e+00 3.34e-01 2.20e+02  -3.8 2.27e+03    -  1.00e+00 1.00e+00h  1
  39  1.5174052e+00 1.36e+00 1.38e+03  -3.8 2.51e+04    -  1.00e+00 2.50e-01h  3
iter    objective    inf_pr   inf_du lg(mu)  ||d||  lg(rg) alpha_du alpha_pr  ls
  40  1.5174042e+00 1.15e-05 1.50e-02  -3.8 4.94e-04  -0.3 1.00e+00 1.00e+00h  1
  41  1.5173963e+00 2.92e-01 1.31e+02  -3.8 4.81e+03    -  1.00e+00 1.00e+00h  1
  42  1.5173912e+00 8.67e-01 2.15e+01  -3.8 1.31e+04    -  1.00e+00 1.00e+00h  1
  43  1.5173906e+00 1.74e-01 1.03e+03  -3.8 2.76e+04    -  1.00e+00 1.00e+00h  1
  44  1.5173907e+00 3.59e-08 2.44e-04  -3.8 7.42e-05  -0.8 1.00e+00 1.00e+00h  1
  45  1.5173892e+00 2.68e-01 5.06e+01  -5.7 2.80e+04    -  1.00e+00 1.00e+00h  1
  46  1.5173885e+00 2.70e-01 2.53e+01  -5.7 6.91e+04    -  1.00e+00 1.00e+00h  1
  47  1.5173882e+00 2.83e-01 1.93e+02  -5.7 1.43e+05    -  1.00e+00 1.00e+00h  1
  48  1.5173882e+00 2.01e-01 2.29e+02  -5.7 1.65e+05    -  1.00e+00 1.00e+00h  1
  49  1.5173882e+00 4.89e-09 1.01e-05  -5.7 2.04e-06  -1.3 1.00e+00 1.00e+00h  1
iter    objective    inf_pr   inf_du lg(mu)  ||d||  lg(rg) alpha_du alpha_pr  ls
  50  1.5173881e+00 5.21e-02 2.45e+01  -8.6 4.94e+04    -  1.00e+00 1.00e+00h  1
  51  1.5173881e+00 3.48e-09 2.54e-07  -8.6 3.18e-06  -1.7 1.00e+00 1.00e+00h  1
  52  1.5173881e+00 2.40e-09 1.65e-09  -8.6 3.77e-09  -2.2 1.00e+00 1.00e+00H  1

Number of Iterations....: 52

                                   (scaled)                 (unscaled)
Objective...............:   1.5173881302115313e+00    1.5173881302115313e+00
Dual infeasibility......:   1.6523914249483376e-09    1.6523914249483376e-09
Constraint violation....:   1.8377362929477323e-09    2.4010660126805305e-09
Variable bound violation:   0.0000000000000000e+00    0.0000000000000000e+00
Complementarity.........:   2.5059035596800622e-09    2.5059035596800622e-09
Overall NLP error.......:   2.5059035596800622e-09    2.5059035596800622e-09


Number of objective function evaluations             = 79
Number of objective gradient evaluations             = 53
Number of equality constraint evaluations            = 79
Number of inequality constraint evaluations          = 0
Number of equality constraint Jacobian evaluations   = 53
Number of inequality constraint Jacobian evaluations = 0
Number of Lagrangian Hessian evaluations             = 52
Total seconds in IPOPT                               = 0.045

EXIT: Optimal Solution Found.
 
Ipopt 3.14.11: Optimal Solution Found
